(declare-datatypes (T1 T2) ((Pair (mk-pair (first T1) (second T2)))))
(declare-const p1 (Pair Int Int))
(declare-const p2 (Pair Int Int))
(assert (= p1 p2))
(assert (> (second p1) 20))
(check-sat)
(get-model)
